objective value:                                   29
t_x183                                              1 	(obj:1)
t_x222                                              1 	(obj:1)
t_x231                                              1 	(obj:1)
t_x241                                              1 	(obj:1)
t_x242                                              1 	(obj:1)
t_x248                                              1 	(obj:1)
t_x255                                              1 	(obj:1)
t_x259                                              1 	(obj:1)
t_x263                                              1 	(obj:1)
t_x264                                              1 	(obj:1)
t_x266                                              1 	(obj:1)
t_x268                                              1 	(obj:1)
t_x270                                              1 	(obj:1)
t_x271                                              1 	(obj:1)
t_x272                                              1 	(obj:1)
t_x275                                              1 	(obj:1)
t_x276                                              1 	(obj:1)
t_x279                                              1 	(obj:1)
t_x285                                              1 	(obj:1)
t_x286                                              1 	(obj:1)
t_x287                                              1 	(obj:1)
t_x288                                              1 	(obj:1)
t_x290                                              1 	(obj:1)
t_x291                                              1 	(obj:1)
t_x292                                              1 	(obj:1)
t_x293                                              1 	(obj:1)
t_x294                                              1 	(obj:1)
t_x295                                              1 	(obj:1)
t_x297                                              1 	(obj:1)
